86
0 30 49 60 51 41 16 8 67 17 
42 3 32 25 82 14 7 68 26 31 
50 48 35 36 58 46 11 22 66 19 
38 43 45 61 34 4 21 69 55 59 
72 18 77 6 24 53 65 47 85 75 
80 76 12 52 20 81 56 62 29 79 
9 33 83 78 5 64 73 71 1 13 
70 54 2 10 57 15 27 84 23 39 
40 63 44 37 28 74 
